p cnf 1012 2121             
-8 -7 -19 0
19 -21 0
7 8 -20 0
20 -21 0
21 -37 0
-10 -9 -22 0
22 -24 0
9 10 -23 0
23 -24 0
24 -37 0
-12 -11 -25 0
25 -27 0
11 12 -26 0
26 -27 0
27 -37 0
-14 -13 -28 0
28 -30 0
13 14 -29 0
29 -30 0
30 -37 0
-16 -15 -31 0
31 -33 0
15 16 -32 0
32 -33 0
33 -37 0
-18 -17 -34 0
34 -36 0
17 18 -35 0
35 -36 0
36 -37 0
-7 -38 0
8 -38 0
7 -8 38 0
-1 38 -39 0
1 -38 -39 0
38 -38 -39 0
39 -50 0
-9 -40 0
10 -40 0
9 -10 40 0
-2 40 -41 0
2 -40 -41 0
40 -40 -41 0
41 -50 0
-11 -42 0
12 -42 0
11 -12 42 0
-3 42 -43 0
3 -42 -43 0
42 -42 -43 0
43 -50 0
-13 -44 0
14 -44 0
13 -14 44 0
-4 44 -45 0
4 -44 -45 0
44 -44 -45 0
45 -50 0
-15 -46 0
16 -46 0
15 -16 46 0
-5 46 -47 0
5 -46 -47 0
46 -46 -47 0
47 -50 0
-17 -48 0
18 -48 0
17 -18 48 0
-6 48 -49 0
6 -48 -49 0
48 -48 -49 0
49 -50 0
1 -54 0
-18 -51 0
-16 -51 0
-14 -51 0
-12 -51 0
-10 -51 0
-8 -51 0
51 -53 0
7 -52 0
9 -52 0
11 -52 0
13 -52 0
15 -52 0
17 -52 0
52 -53 0
53 -54 0
2 -55 0
53 -55 0
3 -56 0
53 -56 0
4 -57 0
53 -57 0
5 -58 0
53 -58 0
6 -59 0
53 -59 0
1 -69 0
-17 -66 0
-16 -66 0
-14 -66 0
-12 -66 0
-10 -66 0
-8 -66 0
17 16 14 12 10 8 66 0
66 -68 0
7 -67 0
9 -67 0
11 -67 0
13 -67 0
15 -67 0
18 -67 0
-7 -9 -11 -13 -15 -18 67 0
67 -68 0
-66 -67 68 0
68 -69 0
2 -70 0
68 -70 0
3 -71 0
68 -71 0
4 -72 0
68 -72 0
5 -73 0
68 -73 0
-6 -68 74 0
-74 -80 0
68 -80 0
1 -84 0
-18 -81 0
-15 -81 0
-14 -81 0
-12 -81 0
-10 -81 0
-8 -81 0
18 15 14 12 10 8 81 0
81 -83 0
7 -82 0
9 -82 0
11 -82 0
13 -82 0
16 -82 0
17 -82 0
-7 -9 -11 -13 -16 -17 82 0
82 -83 0
-81 -82 83 0
83 -84 0
2 -85 0
83 -85 0
3 -86 0
83 -86 0
4 -87 0
83 -87 0
6 -89 0
83 -89 0
-5 -83 88 0
-88 -94 0
83 -94 0
1 -99 0
-17 -96 0
-15 -96 0
-14 -96 0
-12 -96 0
-10 -96 0
-8 -96 0
17 15 14 12 10 8 96 0
96 -98 0
7 -97 0
9 -97 0
11 -97 0
13 -97 0
16 -97 0
18 -97 0
-7 -9 -11 -13 -16 -18 97 0
97 -98 0
-96 -97 98 0
98 -99 0
2 -100 0
98 -100 0
3 -101 0
98 -101 0
4 -102 0
98 -102 0
-5 -98 103 0
-103 -109 0
98 -109 0
-6 -98 104 0
-104 -110 0
98 -110 0
1 -114 0
-18 -111 0
-16 -111 0
-13 -111 0
-12 -111 0
-10 -111 0
-8 -111 0
18 16 13 12 10 8 111 0
111 -113 0
7 -112 0
9 -112 0
11 -112 0
14 -112 0
15 -112 0
17 -112 0
-7 -9 -11 -14 -15 -17 112 0
112 -113 0
-111 -112 113 0
113 -114 0
2 -115 0
113 -115 0
3 -116 0
113 -116 0
5 -118 0
113 -118 0
6 -119 0
113 -119 0
-4 -113 117 0
-117 -123 0
113 -123 0
1 -129 0
-17 -126 0
-16 -126 0
-13 -126 0
-12 -126 0
-10 -126 0
-8 -126 0
17 16 13 12 10 8 126 0
126 -128 0
7 -127 0
9 -127 0
11 -127 0
14 -127 0
15 -127 0
18 -127 0
-7 -9 -11 -14 -15 -18 127 0
127 -128 0
-126 -127 128 0
128 -129 0
2 -130 0
128 -130 0
3 -131 0
128 -131 0
5 -133 0
128 -133 0
-4 -128 132 0
-132 -138 0
128 -138 0
-6 -128 134 0
-134 -140 0
128 -140 0
1 -144 0
-18 -141 0
-15 -141 0
-13 -141 0
-12 -141 0
-10 -141 0
-8 -141 0
18 15 13 12 10 8 141 0
141 -143 0
7 -142 0
9 -142 0
11 -142 0
14 -142 0
16 -142 0
17 -142 0
-7 -9 -11 -14 -16 -17 142 0
142 -143 0
-141 -142 143 0
143 -144 0
2 -145 0
143 -145 0
3 -146 0
143 -146 0
6 -149 0
143 -149 0
-4 -143 147 0
-147 -153 0
143 -153 0
-5 -143 148 0
-148 -154 0
143 -154 0
1 -159 0
-17 -156 0
-15 -156 0
-13 -156 0
-12 -156 0
-10 -156 0
-8 -156 0
17 15 13 12 10 8 156 0
156 -158 0
7 -157 0
9 -157 0
11 -157 0
14 -157 0
16 -157 0
18 -157 0
-7 -9 -11 -14 -16 -18 157 0
157 -158 0
-156 -157 158 0
158 -159 0
2 -160 0
158 -160 0
3 -161 0
158 -161 0
-4 -158 162 0
-162 -168 0
158 -168 0
-5 -158 163 0
-163 -169 0
158 -169 0
-6 -158 164 0
-164 -170 0
158 -170 0
1 -174 0
-18 -171 0
-16 -171 0
-14 -171 0
-11 -171 0
-10 -171 0
-8 -171 0
18 16 14 11 10 8 171 0
171 -173 0
7 -172 0
9 -172 0
12 -172 0
13 -172 0
15 -172 0
17 -172 0
-7 -9 -12 -13 -15 -17 172 0
172 -173 0
-171 -172 173 0
173 -174 0
2 -175 0
173 -175 0
4 -177 0
173 -177 0
5 -178 0
173 -178 0
6 -179 0
173 -179 0
-3 -173 176 0
-176 -182 0
173 -182 0
1 -189 0
-17 -186 0
-16 -186 0
-14 -186 0
-11 -186 0
-10 -186 0
-8 -186 0
17 16 14 11 10 8 186 0
186 -188 0
7 -187 0
9 -187 0
12 -187 0
13 -187 0
15 -187 0
18 -187 0
-7 -9 -12 -13 -15 -18 187 0
187 -188 0
-186 -187 188 0
188 -189 0
2 -190 0
188 -190 0
4 -192 0
188 -192 0
5 -193 0
188 -193 0
-3 -188 191 0
-191 -197 0
188 -197 0
-6 -188 194 0
-194 -200 0
188 -200 0
1 -204 0
-18 -201 0
-15 -201 0
-14 -201 0
-11 -201 0
-10 -201 0
-8 -201 0
18 15 14 11 10 8 201 0
201 -203 0
7 -202 0
9 -202 0
12 -202 0
13 -202 0
16 -202 0
17 -202 0
-7 -9 -12 -13 -16 -17 202 0
202 -203 0
-201 -202 203 0
203 -204 0
2 -205 0
203 -205 0
4 -207 0
203 -207 0
6 -209 0
203 -209 0
-3 -203 206 0
-206 -212 0
203 -212 0
-5 -203 208 0
-208 -214 0
203 -214 0
1 -219 0
-17 -216 0
-15 -216 0
-14 -216 0
-11 -216 0
-10 -216 0
-8 -216 0
17 15 14 11 10 8 216 0
216 -218 0
7 -217 0
9 -217 0
12 -217 0
13 -217 0
16 -217 0
18 -217 0
-7 -9 -12 -13 -16 -18 217 0
217 -218 0
-216 -217 218 0
218 -219 0
2 -220 0
218 -220 0
4 -222 0
218 -222 0
-3 -218 221 0
-221 -227 0
218 -227 0
-5 -218 223 0
-223 -229 0
218 -229 0
-6 -218 224 0
-224 -230 0
218 -230 0
1 -234 0
-18 -231 0
-16 -231 0
-13 -231 0
-11 -231 0
-10 -231 0
-8 -231 0
18 16 13 11 10 8 231 0
231 -233 0
7 -232 0
9 -232 0
12 -232 0
14 -232 0
15 -232 0
17 -232 0
-7 -9 -12 -14 -15 -17 232 0
232 -233 0
-231 -232 233 0
233 -234 0
2 -235 0
233 -235 0
5 -238 0
233 -238 0
6 -239 0
233 -239 0
-3 -233 236 0
-236 -242 0
233 -242 0
-4 -233 237 0
-237 -243 0
233 -243 0
1 -249 0
-17 -246 0
-16 -246 0
-13 -246 0
-11 -246 0
-10 -246 0
-8 -246 0
17 16 13 11 10 8 246 0
246 -248 0
7 -247 0
9 -247 0
12 -247 0
14 -247 0
15 -247 0
18 -247 0
-7 -9 -12 -14 -15 -18 247 0
247 -248 0
-246 -247 248 0
248 -249 0
2 -250 0
248 -250 0
5 -253 0
248 -253 0
-3 -248 251 0
-251 -257 0
248 -257 0
-4 -248 252 0
-252 -258 0
248 -258 0
-6 -248 254 0
-254 -260 0
248 -260 0
1 -264 0
-18 -261 0
-15 -261 0
-13 -261 0
-11 -261 0
-10 -261 0
-8 -261 0
18 15 13 11 10 8 261 0
261 -263 0
7 -262 0
9 -262 0
12 -262 0
14 -262 0
16 -262 0
17 -262 0
-7 -9 -12 -14 -16 -17 262 0
262 -263 0
-261 -262 263 0
263 -264 0
2 -265 0
263 -265 0
6 -269 0
263 -269 0
-3 -263 266 0
-266 -272 0
263 -272 0
-4 -263 267 0
-267 -273 0
263 -273 0
-5 -263 268 0
-268 -274 0
263 -274 0
1 -279 0
-17 -276 0
-15 -276 0
-13 -276 0
-11 -276 0
-10 -276 0
-8 -276 0
17 15 13 11 10 8 276 0
276 -278 0
7 -277 0
9 -277 0
12 -277 0
14 -277 0
16 -277 0
18 -277 0
-7 -9 -12 -14 -16 -18 277 0
277 -278 0
-276 -277 278 0
278 -279 0
2 -280 0
278 -280 0
-3 -278 281 0
-281 -287 0
278 -287 0
-4 -278 282 0
-282 -288 0
278 -288 0
-5 -278 283 0
-283 -289 0
278 -289 0
-6 -278 284 0
-284 -290 0
278 -290 0
1 -294 0
-18 -291 0
-16 -291 0
-14 -291 0
-12 -291 0
-9 -291 0
-8 -291 0
18 16 14 12 9 8 291 0
291 -293 0
7 -292 0
10 -292 0
11 -292 0
13 -292 0
15 -292 0
17 -292 0
-7 -10 -11 -13 -15 -17 292 0
292 -293 0
-291 -292 293 0
293 -294 0
3 -296 0
293 -296 0
4 -297 0
293 -297 0
5 -298 0
293 -298 0
6 -299 0
293 -299 0
-2 -293 295 0
-295 -301 0
293 -301 0
1 -309 0
-17 -306 0
-16 -306 0
-14 -306 0
-12 -306 0
-9 -306 0
-8 -306 0
17 16 14 12 9 8 306 0
306 -308 0
7 -307 0
10 -307 0
11 -307 0
13 -307 0
15 -307 0
18 -307 0
-7 -10 -11 -13 -15 -18 307 0
307 -308 0
-306 -307 308 0
308 -309 0
3 -311 0
308 -311 0
4 -312 0
308 -312 0
5 -313 0
308 -313 0
-2 -308 310 0
-310 -316 0
308 -316 0
-6 -308 314 0
-314 -320 0
308 -320 0
1 -324 0
-18 -321 0
-15 -321 0
-14 -321 0
-12 -321 0
-9 -321 0
-8 -321 0
18 15 14 12 9 8 321 0
321 -323 0
7 -322 0
10 -322 0
11 -322 0
13 -322 0
16 -322 0
17 -322 0
-7 -10 -11 -13 -16 -17 322 0
322 -323 0
-321 -322 323 0
323 -324 0
3 -326 0
323 -326 0
4 -327 0
323 -327 0
6 -329 0
323 -329 0
-2 -323 325 0
-325 -331 0
323 -331 0
-5 -323 328 0
-328 -334 0
323 -334 0
1 -339 0
-17 -336 0
-15 -336 0
-14 -336 0
-12 -336 0
-9 -336 0
-8 -336 0
17 15 14 12 9 8 336 0
336 -338 0
7 -337 0
10 -337 0
11 -337 0
13 -337 0
16 -337 0
18 -337 0
-7 -10 -11 -13 -16 -18 337 0
337 -338 0
-336 -337 338 0
338 -339 0
3 -341 0
338 -341 0
4 -342 0
338 -342 0
-2 -338 340 0
-340 -346 0
338 -346 0
-5 -338 343 0
-343 -349 0
338 -349 0
-6 -338 344 0
-344 -350 0
338 -350 0
1 -354 0
-18 -351 0
-16 -351 0
-13 -351 0
-12 -351 0
-9 -351 0
-8 -351 0
18 16 13 12 9 8 351 0
351 -353 0
7 -352 0
10 -352 0
11 -352 0
14 -352 0
15 -352 0
17 -352 0
-7 -10 -11 -14 -15 -17 352 0
352 -353 0
-351 -352 353 0
353 -354 0
3 -356 0
353 -356 0
5 -358 0
353 -358 0
6 -359 0
353 -359 0
-2 -353 355 0
-355 -361 0
353 -361 0
-4 -353 357 0
-357 -363 0
353 -363 0
1 -369 0
-17 -366 0
-16 -366 0
-13 -366 0
-12 -366 0
-9 -366 0
-8 -366 0
17 16 13 12 9 8 366 0
366 -368 0
7 -367 0
10 -367 0
11 -367 0
14 -367 0
15 -367 0
18 -367 0
-7 -10 -11 -14 -15 -18 367 0
367 -368 0
-366 -367 368 0
368 -369 0
3 -371 0
368 -371 0
5 -373 0
368 -373 0
-2 -368 370 0
-370 -376 0
368 -376 0
-4 -368 372 0
-372 -378 0
368 -378 0
-6 -368 374 0
-374 -380 0
368 -380 0
1 -384 0
-18 -381 0
-15 -381 0
-13 -381 0
-12 -381 0
-9 -381 0
-8 -381 0
18 15 13 12 9 8 381 0
381 -383 0
7 -382 0
10 -382 0
11 -382 0
14 -382 0
16 -382 0
17 -382 0
-7 -10 -11 -14 -16 -17 382 0
382 -383 0
-381 -382 383 0
383 -384 0
3 -386 0
383 -386 0
6 -389 0
383 -389 0
-2 -383 385 0
-385 -391 0
383 -391 0
-4 -383 387 0
-387 -393 0
383 -393 0
-5 -383 388 0
-388 -394 0
383 -394 0
1 -399 0
-17 -396 0
-15 -396 0
-13 -396 0
-12 -396 0
-9 -396 0
-8 -396 0
17 15 13 12 9 8 396 0
396 -398 0
7 -397 0
10 -397 0
11 -397 0
14 -397 0
16 -397 0
18 -397 0
-7 -10 -11 -14 -16 -18 397 0
397 -398 0
-396 -397 398 0
398 -399 0
3 -401 0
398 -401 0
-2 -398 400 0
-400 -406 0
398 -406 0
-4 -398 402 0
-402 -408 0
398 -408 0
-5 -398 403 0
-403 -409 0
398 -409 0
-6 -398 404 0
-404 -410 0
398 -410 0
1 -414 0
-18 -411 0
-16 -411 0
-14 -411 0
-11 -411 0
-9 -411 0
-8 -411 0
18 16 14 11 9 8 411 0
411 -413 0
7 -412 0
10 -412 0
12 -412 0
13 -412 0
15 -412 0
17 -412 0
-7 -10 -12 -13 -15 -17 412 0
412 -413 0
-411 -412 413 0
413 -414 0
4 -417 0
413 -417 0
5 -418 0
413 -418 0
6 -419 0
413 -419 0
-2 -413 415 0
-415 -421 0
413 -421 0
-3 -413 416 0
-416 -422 0
413 -422 0
1 -429 0
-17 -426 0
-16 -426 0
-14 -426 0
-11 -426 0
-9 -426 0
-8 -426 0
17 16 14 11 9 8 426 0
426 -428 0
7 -427 0
10 -427 0
12 -427 0
13 -427 0
15 -427 0
18 -427 0
-7 -10 -12 -13 -15 -18 427 0
427 -428 0
-426 -427 428 0
428 -429 0
4 -432 0
428 -432 0
5 -433 0
428 -433 0
-2 -428 430 0
-430 -436 0
428 -436 0
-3 -428 431 0
-431 -437 0
428 -437 0
-6 -428 434 0
-434 -440 0
428 -440 0
1 -444 0
-18 -441 0
-15 -441 0
-14 -441 0
-11 -441 0
-9 -441 0
-8 -441 0
18 15 14 11 9 8 441 0
441 -443 0
7 -442 0
10 -442 0
12 -442 0
13 -442 0
16 -442 0
17 -442 0
-7 -10 -12 -13 -16 -17 442 0
442 -443 0
-441 -442 443 0
443 -444 0
4 -447 0
443 -447 0
6 -449 0
443 -449 0
-2 -443 445 0
-445 -451 0
443 -451 0
-3 -443 446 0
-446 -452 0
443 -452 0
-5 -443 448 0
-448 -454 0
443 -454 0
1 -459 0
-17 -456 0
-15 -456 0
-14 -456 0
-11 -456 0
-9 -456 0
-8 -456 0
17 15 14 11 9 8 456 0
456 -458 0
7 -457 0
10 -457 0
12 -457 0
13 -457 0
16 -457 0
18 -457 0
-7 -10 -12 -13 -16 -18 457 0
457 -458 0
-456 -457 458 0
458 -459 0
4 -462 0
458 -462 0
-2 -458 460 0
-460 -466 0
458 -466 0
-3 -458 461 0
-461 -467 0
458 -467 0
-5 -458 463 0
-463 -469 0
458 -469 0
-6 -458 464 0
-464 -470 0
458 -470 0
1 -474 0
-18 -471 0
-16 -471 0
-13 -471 0
-11 -471 0
-9 -471 0
-8 -471 0
18 16 13 11 9 8 471 0
471 -473 0
7 -472 0
10 -472 0
12 -472 0
14 -472 0
15 -472 0
17 -472 0
-7 -10 -12 -14 -15 -17 472 0
472 -473 0
-471 -472 473 0
473 -474 0
5 -478 0
473 -478 0
6 -479 0
473 -479 0
-2 -473 475 0
-475 -481 0
473 -481 0
-3 -473 476 0
-476 -482 0
473 -482 0
-4 -473 477 0
-477 -483 0
473 -483 0
1 -489 0
-17 -486 0
-16 -486 0
-13 -486 0
-11 -486 0
-9 -486 0
-8 -486 0
17 16 13 11 9 8 486 0
486 -488 0
7 -487 0
10 -487 0
12 -487 0
14 -487 0
15 -487 0
18 -487 0
-7 -10 -12 -14 -15 -18 487 0
487 -488 0
-486 -487 488 0
488 -489 0
5 -493 0
488 -493 0
-2 -488 490 0
-490 -496 0
488 -496 0
-3 -488 491 0
-491 -497 0
488 -497 0
-4 -488 492 0
-492 -498 0
488 -498 0
-6 -488 494 0
-494 -500 0
488 -500 0
1 -504 0
-18 -501 0
-15 -501 0
-13 -501 0
-11 -501 0
-9 -501 0
-8 -501 0
18 15 13 11 9 8 501 0
501 -503 0
7 -502 0
10 -502 0
12 -502 0
14 -502 0
16 -502 0
17 -502 0
-7 -10 -12 -14 -16 -17 502 0
502 -503 0
-501 -502 503 0
503 -504 0
6 -509 0
503 -509 0
-2 -503 505 0
-505 -511 0
503 -511 0
-3 -503 506 0
-506 -512 0
503 -512 0
-4 -503 507 0
-507 -513 0
503 -513 0
-5 -503 508 0
-508 -514 0
503 -514 0
1 -519 0
-17 -516 0
-15 -516 0
-13 -516 0
-11 -516 0
-9 -516 0
-8 -516 0
17 15 13 11 9 8 516 0
516 -518 0
7 -517 0
10 -517 0
12 -517 0
14 -517 0
16 -517 0
18 -517 0
-7 -10 -12 -14 -16 -18 517 0
517 -518 0
-516 -517 518 0
518 -519 0
-2 -518 520 0
-520 -526 0
518 -526 0
-3 -518 521 0
-521 -527 0
518 -527 0
-4 -518 522 0
-522 -528 0
518 -528 0
-5 -518 523 0
-523 -529 0
518 -529 0
-6 -518 524 0
-524 -530 0
518 -530 0
2 -535 0
-18 -531 0
-16 -531 0
-14 -531 0
-12 -531 0
-10 -531 0
-7 -531 0
18 16 14 12 10 7 531 0
531 -533 0
8 -532 0
9 -532 0
11 -532 0
13 -532 0
15 -532 0
17 -532 0
-8 -9 -11 -13 -15 -17 532 0
532 -533 0
-531 -532 533 0
533 -535 0
3 -536 0
533 -536 0
4 -537 0
533 -537 0
5 -538 0
533 -538 0
6 -539 0
533 -539 0
-1 -533 534 0
-534 -540 0
533 -540 0
2 -550 0
-17 -546 0
-16 -546 0
-14 -546 0
-12 -546 0
-10 -546 0
-7 -546 0
17 16 14 12 10 7 546 0
546 -548 0
8 -547 0
9 -547 0
11 -547 0
13 -547 0
15 -547 0
18 -547 0
-8 -9 -11 -13 -15 -18 547 0
547 -548 0
-546 -547 548 0
548 -550 0
3 -551 0
548 -551 0
4 -552 0
548 -552 0
5 -553 0
548 -553 0
-1 -548 549 0
-549 -555 0
548 -555 0
-6 -548 554 0
-554 -560 0
548 -560 0
2 -565 0
-18 -561 0
-15 -561 0
-14 -561 0
-12 -561 0
-10 -561 0
-7 -561 0
18 15 14 12 10 7 561 0
561 -563 0
8 -562 0
9 -562 0
11 -562 0
13 -562 0
16 -562 0
17 -562 0
-8 -9 -11 -13 -16 -17 562 0
562 -563 0
-561 -562 563 0
563 -565 0
3 -566 0
563 -566 0
4 -567 0
563 -567 0
6 -569 0
563 -569 0
-1 -563 564 0
-564 -570 0
563 -570 0
-5 -563 568 0
-568 -574 0
563 -574 0
2 -580 0
-17 -576 0
-15 -576 0
-14 -576 0
-12 -576 0
-10 -576 0
-7 -576 0
17 15 14 12 10 7 576 0
576 -578 0
8 -577 0
9 -577 0
11 -577 0
13 -577 0
16 -577 0
18 -577 0
-8 -9 -11 -13 -16 -18 577 0
577 -578 0
-576 -577 578 0
578 -580 0
3 -581 0
578 -581 0
4 -582 0
578 -582 0
-1 -578 579 0
-579 -585 0
578 -585 0
-5 -578 583 0
-583 -589 0
578 -589 0
-6 -578 584 0
-584 -590 0
578 -590 0
2 -595 0
-18 -591 0
-16 -591 0
-13 -591 0
-12 -591 0
-10 -591 0
-7 -591 0
18 16 13 12 10 7 591 0
591 -593 0
8 -592 0
9 -592 0
11 -592 0
14 -592 0
15 -592 0
17 -592 0
-8 -9 -11 -14 -15 -17 592 0
592 -593 0
-591 -592 593 0
593 -595 0
3 -596 0
593 -596 0
5 -598 0
593 -598 0
6 -599 0
593 -599 0
-1 -593 594 0
-594 -600 0
593 -600 0
-4 -593 597 0
-597 -603 0
593 -603 0
2 -610 0
-17 -606 0
-16 -606 0
-13 -606 0
-12 -606 0
-10 -606 0
-7 -606 0
17 16 13 12 10 7 606 0
606 -608 0
8 -607 0
9 -607 0
11 -607 0
14 -607 0
15 -607 0
18 -607 0
-8 -9 -11 -14 -15 -18 607 0
607 -608 0
-606 -607 608 0
608 -610 0
3 -611 0
608 -611 0
5 -613 0
608 -613 0
-1 -608 609 0
-609 -615 0
608 -615 0
-4 -608 612 0
-612 -618 0
608 -618 0
-6 -608 614 0
-614 -620 0
608 -620 0
2 -625 0
-18 -621 0
-15 -621 0
-13 -621 0
-12 -621 0
-10 -621 0
-7 -621 0
18 15 13 12 10 7 621 0
621 -623 0
8 -622 0
9 -622 0
11 -622 0
14 -622 0
16 -622 0
17 -622 0
-8 -9 -11 -14 -16 -17 622 0
622 -623 0
-621 -622 623 0
623 -625 0
3 -626 0
623 -626 0
6 -629 0
623 -629 0
-1 -623 624 0
-624 -630 0
623 -630 0
-4 -623 627 0
-627 -633 0
623 -633 0
-5 -623 628 0
-628 -634 0
623 -634 0
2 -640 0
-17 -636 0
-15 -636 0
-13 -636 0
-12 -636 0
-10 -636 0
-7 -636 0
17 15 13 12 10 7 636 0
636 -638 0
8 -637 0
9 -637 0
11 -637 0
14 -637 0
16 -637 0
18 -637 0
-8 -9 -11 -14 -16 -18 637 0
637 -638 0
-636 -637 638 0
638 -640 0
3 -641 0
638 -641 0
-1 -638 639 0
-639 -645 0
638 -645 0
-4 -638 642 0
-642 -648 0
638 -648 0
-5 -638 643 0
-643 -649 0
638 -649 0
-6 -638 644 0
-644 -650 0
638 -650 0
2 -655 0
-18 -651 0
-16 -651 0
-14 -651 0
-11 -651 0
-10 -651 0
-7 -651 0
18 16 14 11 10 7 651 0
651 -653 0
8 -652 0
9 -652 0
12 -652 0
13 -652 0
15 -652 0
17 -652 0
-8 -9 -12 -13 -15 -17 652 0
652 -653 0
-651 -652 653 0
653 -655 0
4 -657 0
653 -657 0
5 -658 0
653 -658 0
6 -659 0
653 -659 0
-1 -653 654 0
-654 -660 0
653 -660 0
-3 -653 656 0
-656 -662 0
653 -662 0
2 -670 0
-17 -666 0
-16 -666 0
-14 -666 0
-11 -666 0
-10 -666 0
-7 -666 0
17 16 14 11 10 7 666 0
666 -668 0
8 -667 0
9 -667 0
12 -667 0
13 -667 0
15 -667 0
18 -667 0
-8 -9 -12 -13 -15 -18 667 0
667 -668 0
-666 -667 668 0
668 -670 0
4 -672 0
668 -672 0
5 -673 0
668 -673 0
-1 -668 669 0
-669 -675 0
668 -675 0
-3 -668 671 0
-671 -677 0
668 -677 0
-6 -668 674 0
-674 -680 0
668 -680 0
2 -685 0
-18 -681 0
-15 -681 0
-14 -681 0
-11 -681 0
-10 -681 0
-7 -681 0
18 15 14 11 10 7 681 0
681 -683 0
8 -682 0
9 -682 0
12 -682 0
13 -682 0
16 -682 0
17 -682 0
-8 -9 -12 -13 -16 -17 682 0
682 -683 0
-681 -682 683 0
683 -685 0
4 -687 0
683 -687 0
6 -689 0
683 -689 0
-1 -683 684 0
-684 -690 0
683 -690 0
-3 -683 686 0
-686 -692 0
683 -692 0
-5 -683 688 0
-688 -694 0
683 -694 0
2 -700 0
-17 -696 0
-15 -696 0
-14 -696 0
-11 -696 0
-10 -696 0
-7 -696 0
17 15 14 11 10 7 696 0
696 -698 0
8 -697 0
9 -697 0
12 -697 0
13 -697 0
16 -697 0
18 -697 0
-8 -9 -12 -13 -16 -18 697 0
697 -698 0
-696 -697 698 0
698 -700 0
4 -702 0
698 -702 0
-1 -698 699 0
-699 -705 0
698 -705 0
-3 -698 701 0
-701 -707 0
698 -707 0
-5 -698 703 0
-703 -709 0
698 -709 0
-6 -698 704 0
-704 -710 0
698 -710 0
2 -715 0
-18 -711 0
-16 -711 0
-13 -711 0
-11 -711 0
-10 -711 0
-7 -711 0
18 16 13 11 10 7 711 0
711 -713 0
8 -712 0
9 -712 0
12 -712 0
14 -712 0
15 -712 0
17 -712 0
-8 -9 -12 -14 -15 -17 712 0
712 -713 0
-711 -712 713 0
713 -715 0
5 -718 0
713 -718 0
6 -719 0
713 -719 0
-1 -713 714 0
-714 -720 0
713 -720 0
-3 -713 716 0
-716 -722 0
713 -722 0
-4 -713 717 0
-717 -723 0
713 -723 0
2 -730 0
-17 -726 0
-16 -726 0
-13 -726 0
-11 -726 0
-10 -726 0
-7 -726 0
17 16 13 11 10 7 726 0
726 -728 0
8 -727 0
9 -727 0
12 -727 0
14 -727 0
15 -727 0
18 -727 0
-8 -9 -12 -14 -15 -18 727 0
727 -728 0
-726 -727 728 0
728 -730 0
5 -733 0
728 -733 0
-1 -728 729 0
-729 -735 0
728 -735 0
-3 -728 731 0
-731 -737 0
728 -737 0
-4 -728 732 0
-732 -738 0
728 -738 0
-6 -728 734 0
-734 -740 0
728 -740 0
2 -745 0
-18 -741 0
-15 -741 0
-13 -741 0
-11 -741 0
-10 -741 0
-7 -741 0
18 15 13 11 10 7 741 0
741 -743 0
8 -742 0
9 -742 0
12 -742 0
14 -742 0
16 -742 0
17 -742 0
-8 -9 -12 -14 -16 -17 742 0
742 -743 0
-741 -742 743 0
743 -745 0
6 -749 0
743 -749 0
-1 -743 744 0
-744 -750 0
743 -750 0
-3 -743 746 0
-746 -752 0
743 -752 0
-4 -743 747 0
-747 -753 0
743 -753 0
-5 -743 748 0
-748 -754 0
743 -754 0
2 -760 0
-17 -756 0
-15 -756 0
-13 -756 0
-11 -756 0
-10 -756 0
-7 -756 0
17 15 13 11 10 7 756 0
756 -758 0
8 -757 0
9 -757 0
12 -757 0
14 -757 0
16 -757 0
18 -757 0
-8 -9 -12 -14 -16 -18 757 0
757 -758 0
-756 -757 758 0
758 -760 0
-1 -758 759 0
-759 -765 0
758 -765 0
-3 -758 761 0
-761 -767 0
758 -767 0
-4 -758 762 0
-762 -768 0
758 -768 0
-5 -758 763 0
-763 -769 0
758 -769 0
-6 -758 764 0
-764 -770 0
758 -770 0
3 -776 0
-18 -771 0
-16 -771 0
-14 -771 0
-12 -771 0
-9 -771 0
-7 -771 0
18 16 14 12 9 7 771 0
771 -773 0
8 -772 0
10 -772 0
11 -772 0
13 -772 0
15 -772 0
17 -772 0
-8 -10 -11 -13 -15 -17 772 0
772 -773 0
-771 -772 773 0
773 -776 0
4 -777 0
773 -777 0
5 -778 0
773 -778 0
6 -779 0
773 -779 0
-1 -773 774 0
-774 -780 0
773 -780 0
-2 -773 775 0
-775 -781 0
773 -781 0
3 -791 0
-17 -786 0
-16 -786 0
-14 -786 0
-12 -786 0
-9 -786 0
-7 -786 0
17 16 14 12 9 7 786 0
786 -788 0
8 -787 0
10 -787 0
11 -787 0
13 -787 0
15 -787 0
18 -787 0
-8 -10 -11 -13 -15 -18 787 0
787 -788 0
-786 -787 788 0
788 -791 0
4 -792 0
788 -792 0
5 -793 0
788 -793 0
-1 -788 789 0
-789 -795 0
788 -795 0
-2 -788 790 0
-790 -796 0
788 -796 0
-6 -788 794 0
-794 -800 0
788 -800 0
3 -806 0
-18 -801 0
-15 -801 0
-14 -801 0
-12 -801 0
-9 -801 0
-7 -801 0
18 15 14 12 9 7 801 0
801 -803 0
8 -802 0
10 -802 0
11 -802 0
13 -802 0
16 -802 0
17 -802 0
-8 -10 -11 -13 -16 -17 802 0
802 -803 0
-801 -802 803 0
803 -806 0
4 -807 0
803 -807 0
6 -809 0
803 -809 0
-1 -803 804 0
-804 -810 0
803 -810 0
-2 -803 805 0
-805 -811 0
803 -811 0
-5 -803 808 0
-808 -814 0
803 -814 0
3 -821 0
-17 -816 0
-15 -816 0
-14 -816 0
-12 -816 0
-9 -816 0
-7 -816 0
17 15 14 12 9 7 816 0
816 -818 0
8 -817 0
10 -817 0
11 -817 0
13 -817 0
16 -817 0
18 -817 0
-8 -10 -11 -13 -16 -18 817 0
817 -818 0
-816 -817 818 0
818 -821 0
4 -822 0
818 -822 0
-1 -818 819 0
-819 -825 0
818 -825 0
-2 -818 820 0
-820 -826 0
818 -826 0
-5 -818 823 0
-823 -829 0
818 -829 0
-6 -818 824 0
-824 -830 0
818 -830 0
3 -836 0
-18 -831 0
-16 -831 0
-13 -831 0
-12 -831 0
-9 -831 0
-7 -831 0
18 16 13 12 9 7 831 0
831 -833 0
8 -832 0
10 -832 0
11 -832 0
14 -832 0
15 -832 0
17 -832 0
-8 -10 -11 -14 -15 -17 832 0
832 -833 0
-831 -832 833 0
833 -836 0
5 -838 0
833 -838 0
6 -839 0
833 -839 0
-1 -833 834 0
-834 -840 0
833 -840 0
-2 -833 835 0
-835 -841 0
833 -841 0
-4 -833 837 0
-837 -843 0
833 -843 0
3 -851 0
-17 -846 0
-16 -846 0
-13 -846 0
-12 -846 0
-9 -846 0
-7 -846 0
17 16 13 12 9 7 846 0
846 -848 0
8 -847 0
10 -847 0
11 -847 0
14 -847 0
15 -847 0
18 -847 0
-8 -10 -11 -14 -15 -18 847 0
847 -848 0
-846 -847 848 0
848 -851 0
5 -853 0
848 -853 0
-1 -848 849 0
-849 -855 0
848 -855 0
-2 -848 850 0
-850 -856 0
848 -856 0
-4 -848 852 0
-852 -858 0
848 -858 0
-6 -848 854 0
-854 -860 0
848 -860 0
3 -866 0
-18 -861 0
-15 -861 0
-13 -861 0
-12 -861 0
-9 -861 0
-7 -861 0
18 15 13 12 9 7 861 0
861 -863 0
8 -862 0
10 -862 0
11 -862 0
14 -862 0
16 -862 0
17 -862 0
-8 -10 -11 -14 -16 -17 862 0
862 -863 0
-861 -862 863 0
863 -866 0
6 -869 0
863 -869 0
-1 -863 864 0
-864 -870 0
863 -870 0
-2 -863 865 0
-865 -871 0
863 -871 0
-4 -863 867 0
-867 -873 0
863 -873 0
-5 -863 868 0
-868 -874 0
863 -874 0
3 -881 0
-17 -876 0
-15 -876 0
-13 -876 0
-12 -876 0
-9 -876 0
-7 -876 0
17 15 13 12 9 7 876 0
876 -878 0
8 -877 0
10 -877 0
11 -877 0
14 -877 0
16 -877 0
18 -877 0
-8 -10 -11 -14 -16 -18 877 0
877 -878 0
-876 -877 878 0
878 -881 0
-1 -878 879 0
-879 -885 0
878 -885 0
-2 -878 880 0
-880 -886 0
878 -886 0
-4 -878 882 0
-882 -888 0
878 -888 0
-5 -878 883 0
-883 -889 0
878 -889 0
-6 -878 884 0
-884 -890 0
878 -890 0
4 -897 0
-18 -891 0
-16 -891 0
-14 -891 0
-11 -891 0
-9 -891 0
-7 -891 0
18 16 14 11 9 7 891 0
891 -893 0
8 -892 0
10 -892 0
12 -892 0
13 -892 0
15 -892 0
17 -892 0
-8 -10 -12 -13 -15 -17 892 0
892 -893 0
-891 -892 893 0
893 -897 0
5 -898 0
893 -898 0
6 -899 0
893 -899 0
-1 -893 894 0
-894 -900 0
893 -900 0
-2 -893 895 0
-895 -901 0
893 -901 0
-3 -893 896 0
-896 -902 0
893 -902 0
4 -912 0
-17 -906 0
-16 -906 0
-14 -906 0
-11 -906 0
-9 -906 0
-7 -906 0
17 16 14 11 9 7 906 0
906 -908 0
8 -907 0
10 -907 0
12 -907 0
13 -907 0
15 -907 0
18 -907 0
-8 -10 -12 -13 -15 -18 907 0
907 -908 0
-906 -907 908 0
908 -912 0
5 -913 0
908 -913 0
-1 -908 909 0
-909 -915 0
908 -915 0
-2 -908 910 0
-910 -916 0
908 -916 0
-3 -908 911 0
-911 -917 0
908 -917 0
-6 -908 914 0
-914 -920 0
908 -920 0
4 -927 0
-18 -921 0
-15 -921 0
-14 -921 0
-11 -921 0
-9 -921 0
-7 -921 0
18 15 14 11 9 7 921 0
921 -923 0
8 -922 0
10 -922 0
12 -922 0
13 -922 0
16 -922 0
17 -922 0
-8 -10 -12 -13 -16 -17 922 0
922 -923 0
-921 -922 923 0
923 -927 0
6 -929 0
923 -929 0
-1 -923 924 0
-924 -930 0
923 -930 0
-2 -923 925 0
-925 -931 0
923 -931 0
-3 -923 926 0
-926 -932 0
923 -932 0
-5 -923 928 0
-928 -934 0
923 -934 0
4 -942 0
-17 -936 0
-15 -936 0
-14 -936 0
-11 -936 0
-9 -936 0
-7 -936 0
17 15 14 11 9 7 936 0
936 -938 0
8 -937 0
10 -937 0
12 -937 0
13 -937 0
16 -937 0
18 -937 0
-8 -10 -12 -13 -16 -18 937 0
937 -938 0
-936 -937 938 0
938 -942 0
-1 -938 939 0
-939 -945 0
938 -945 0
-2 -938 940 0
-940 -946 0
938 -946 0
-3 -938 941 0
-941 -947 0
938 -947 0
-5 -938 943 0
-943 -949 0
938 -949 0
-6 -938 944 0
-944 -950 0
938 -950 0
5 -958 0
-18 -951 0
-16 -951 0
-13 -951 0
-11 -951 0
-9 -951 0
-7 -951 0
18 16 13 11 9 7 951 0
951 -953 0
8 -952 0
10 -952 0
12 -952 0
14 -952 0
15 -952 0
17 -952 0
-8 -10 -12 -14 -15 -17 952 0
952 -953 0
-951 -952 953 0
953 -958 0
6 -959 0
953 -959 0
-1 -953 954 0
-954 -960 0
953 -960 0
-2 -953 955 0
-955 -961 0
953 -961 0
-3 -953 956 0
-956 -962 0
953 -962 0
-4 -953 957 0
-957 -963 0
953 -963 0
5 -973 0
-17 -966 0
-16 -966 0
-13 -966 0
-11 -966 0
-9 -966 0
-7 -966 0
17 16 13 11 9 7 966 0
966 -968 0
8 -967 0
10 -967 0
12 -967 0
14 -967 0
15 -967 0
18 -967 0
-8 -10 -12 -14 -15 -18 967 0
967 -968 0
-966 -967 968 0
968 -973 0
-1 -968 969 0
-969 -975 0
968 -975 0
-2 -968 970 0
-970 -976 0
968 -976 0
-3 -968 971 0
-971 -977 0
968 -977 0
-4 -968 972 0
-972 -978 0
968 -978 0
-6 -968 974 0
-974 -980 0
968 -980 0
6 -989 0
-18 -981 0
-15 -981 0
-13 -981 0
-11 -981 0
-9 -981 0
-7 -981 0
18 15 13 11 9 7 981 0
981 -983 0
8 -982 0
10 -982 0
12 -982 0
14 -982 0
16 -982 0
17 -982 0
-8 -10 -12 -14 -16 -17 982 0
982 -983 0
-981 -982 983 0
983 -989 0
-1 -983 984 0
-984 -990 0
983 -990 0
-2 -983 985 0
-985 -991 0
983 -991 0
-3 -983 986 0
-986 -992 0
983 -992 0
-4 -983 987 0
-987 -993 0
983 -993 0
-5 -983 988 0
-988 -994 0
983 -994 0
-17 -996 0
-15 -996 0
-13 -996 0
-11 -996 0
-9 -996 0
-7 -996 0
17 15 13 11 9 7 996 0
996 -998 0
8 -997 0
10 -997 0
12 -997 0
14 -997 0
16 -997 0
18 -997 0
-8 -10 -12 -14 -16 -18 997 0
997 -998 0
-996 -997 998 0
-1 -998 999 0
-999 -1005 0
998 -1005 0
-2 -998 1000 0
-1000 -1006 0
998 -1006 0
-3 -998 1001 0
-1001 -1007 0
998 -1007 0
-4 -998 1002 0
-1002 -1008 0
998 -1008 0
-5 -998 1003 0
-1003 -1009 0
998 -1009 0
-6 -998 1004 0
-1004 -1010 0
998 -1010 0
54 55 56 57 58 59 69 70 71 72 73 80 84 85 86 87 89 94 99 100 101 102 109 110 114 115 116 118 119 123 129 130 131 133 138 140 144 145 146 149 153 154 159 160 161 168 169 170 174 175 177 178 179 182 189 190 192 193 197 200 204 205 207 209 212 214 219 220 222 227 229 230 234 235 238 239 242 243 249 250 253 257 258 260 264 265 269 272 273 274 279 280 287 288 289 290 294 296 297 298 299 301 309 311 312 313 316 320 324 326 327 329 331 334 339 341 342 346 349 350 354 356 358 359 361 363 369 371 373 376 378 380 384 386 389 391 393 394 399 401 406 408 409 410 414 417 418 419 421 422 429 432 433 436 437 440 444 447 449 451 452 454 459 462 466 467 469 470 474 478 479 481 482 483 489 493 496 497 498 500 504 509 511 512 513 514 519 526 527 528 529 530 535 536 537 538 539 540 550 551 552 553 555 560 565 566 567 569 570 574 580 581 582 585 589 590 595 596 598 599 600 603 610 611 613 615 618 620 625 626 629 630 633 634 640 641 645 648 649 650 655 657 658 659 660 662 670 672 673 675 677 680 685 687 689 690 692 694 700 702 705 707 709 710 715 718 719 720 722 723 730 733 735 737 738 740 745 749 750 752 753 754 760 765 767 768 769 770 776 777 778 779 780 781 791 792 793 795 796 800 806 807 809 810 811 814 821 822 825 826 829 830 836 838 839 840 841 843 851 853 855 856 858 860 866 869 870 871 873 874 881 885 886 888 889 890 897 898 899 900 901 902 912 913 915 916 917 920 927 929 930 931 932 934 942 945 946 947 949 950 958 959 960 961 962 963 973 975 976 977 978 980 989 990 991 992 993 994 1005 1006 1007 1008 1009 1010 -1011 0
37 0
50 0
1011 0
